benchmarks_vrp/CMT2/fixed_c/CMT2_5.vrp
NAME: CMT2_5
TYPE: CVRP
COMMENT: 835.26 - Cluster Nr.5
DIMENSION: 6
CAPACITY: 140
EDGE_WEIGHT_TYPE: EUC_2D
NODE_COORD_TYPE: TWOD_COORDS
NODE_COORD_SECTION: 
3 22 53
4 15 56
5 9 56
6 17 64
1 40 40
2 10 70
DEPOT_SECTION: 
1
-1
DEMAND_SECTION: 
4 22
1 0
6 14
3 28
2 7
5 13
EOF
