benchmarks_vrp/CMT2/fixed_c/CMT2_5.tour
NAME: CMT2_5 solution
TYPE: TOUR
TOUR_SECTION:
1 3 4 5 2 6 -1
-1
EOF